(declare-fun e () String)
(declare-fun c () String)
(declare-fun g () String)
(declare-fun b () String)
(declare-fun d () String)
(declare-fun f () String)
(declare-fun a () String)
(assert (= (str.++ a "c") (str.++ b g "e" b)))
(assert (= (str.++ c "d") (str.++ d g)))
(assert (= (str.++ "h" f "fe" e c) (str.++ a "hd")))

(check-sat)
